12
0 46 58 53 20 59 85 30 71 93 82 73 
10 0 44 54 12 87 98 24 72 11 72 98 
66 6 0 5 18 51 77 54 19 17 1 79 
23 46 81 0 16 58 48 71 5 36 70 71 
18 11 86 49 0 25 73 75 20 38 92 49 
51 65 9 95 14 0 74 46 61 12 86 23 
22 32 92 86 55 89 0 11 26 76 79 45 
45 50 95 31 26 82 6 0 84 2 45 89 
94 88 89 23 72 54 47 63 0 33 90 41 
80 49 11 34 2 77 73 87 43 0 71 78 
37 26 12 85 80 94 65 23 90 66 0 76 
61 8 7 36 41 44 75 82 28 56 97 0 
